(set-logic QF_S)
(declare-fun var_0xINPUT_48059 () String)
(assert (and (= (len var_0xINPUT_48059) 0) (= (len var_0xINPUT_48059) 0) (not (= var_0xINPUT_48059 "Example:")) (not (= var_0xINPUT_48059 "CQALcCP5TB"))))
(check-sat var_0xINPUT_48059)